(set-logic QF_LRA)
(set-info :ran/ran_10_1_lia.smt2)
(set-info :smt-lib-version 2.0)
(declare-fun x0 () Real)
(declare-fun x1 () Real)
(declare-fun x2 () Real)
(declare-fun x3 () Real)
(declare-fun x4 () Real)
(declare-fun x5 () Real)
(declare-fun x6 () Real)
(declare-fun x7 () Real)
(declare-fun x8 () Real)
(declare-fun x9 () Real)
(define-fun ie0 () Bool (<= (+ (* 81 x3) (* (- 9) x9) ) 44))
(define-fun ie1 () Bool (<= (+ (* 87 x5) (* 0 x2) ) (- 100)))
(define-fun ie2 () Bool (<= (+ (* 37 x7) (* 24 x1) ) 32))
(define-fun ie3 () Bool (<= (+ (* 22 x3) (* (- 87) x2) ) (- 2)))
(define-fun ie4 () Bool (<= (+ (* 81 x7) (* (- 93) x2) ) 93))
(define-fun ie5 () Bool (<= (+ (* 47 x0) (* (- 64) x8) ) 97))
(define-fun ie6 () Bool (<= (+ (* 19 x1) (* 30 x1) ) 92))
(define-fun ie7 () Bool (<= (+ (* (- 74) x0) (* 17 x9) ) (- 88)))
(define-fun ie8 () Bool (<= (+ (* (- 30) x6) (* (- 38) x4) ) 29))
(define-fun ie9 () Bool (<= (+ (* 46 x9) (* 83 x0) ) 31))
(assert ie0)
(assert ie1)
(assert ie2)
(assert ie3)
(assert ie4)
(assert ie5)
(assert ie6)
(assert ie7)
(assert ie8)
(assert ie9)
(check-sat)
(exit)
